! openEMS square spiral inductor as an ideal series two-port
! Dout=100um w=1um s=1um turns=7 layers=2
# HZ S RI R 50
1.000000000e+08 5.894559239e-01 1.238334707e-02 4.105440761e-01 -1.238334707e-02 4.105440761e-01 -1.238334707e-02 5.894559239e-01 1.238334707e-02
1.193333333e+08 5.895628502e-01 1.481371480e-02 4.104371498e-01 -1.481371480e-02 4.104371498e-01 -1.481371480e-02 5.895628502e-01 1.481371480e-02
1.386666667e+08 5.896979257e-01 1.726031632e-02 4.103020743e-01 -1.726031632e-02 4.103020743e-01 -1.726031632e-02 5.896979257e-01 1.726031632e-02
1.580000000e+08 5.898648303e-01 1.972367870e-02 4.101351697e-01 -1.972367870e-02 4.101351697e-01 -1.972367870e-02 5.898648303e-01 1.972367870e-02
1.773333333e+08 5.900672717e-01 2.220363691e-02 4.099327283e-01 -2.220363691e-02 4.099327283e-01 -2.220363691e-02 5.900672717e-01 2.220363691e-02
1.966666667e+08 5.903088505e-01 2.469937267e-02 4.096911495e-01 -2.469937267e-02 4.096911495e-01 -2.469937267e-02 5.903088505e-01 2.469937267e-02
2.160000000e+08 5.905929461e-01 2.720947750e-02 4.094070539e-01 -2.720947750e-02 4.094070539e-01 -2.720947750e-02 5.905929461e-01 2.720947750e-02
2.353333333e+08 5.909226250e-01 2.973203277e-02 4.090773750e-01 -2.973203277e-02 4.090773750e-01 -2.973203277e-02 5.909226250e-01 2.973203277e-02
2.546666667e+08 5.913005748e-01 3.226469947e-02 4.086994252e-01 -3.226469947e-02 4.086994252e-01 -3.226469947e-02 5.913005748e-01 3.226469947e-02
2.740000000e+08 5.917290613e-01 3.480481141e-02 4.082709387e-01 -3.480481141e-02 4.082709387e-01 -3.480481141e-02 5.917290613e-01 3.480481141e-02
2.933333333e+08 5.922099072e-01 3.734946646e-02 4.077900928e-01 -3.734946646e-02 4.077900928e-01 -3.734946646e-02 5.922099072e-01 3.734946646e-02
3.126666667e+08 5.927444892e-01 3.989561197e-02 4.072555108e-01 -3.989561197e-02 4.072555108e-01 -3.989561197e-02 5.927444892e-01 3.989561197e-02
3.320000000e+08 5.933337506e-01 4.244012145e-02 4.066662494e-01 -4.244012145e-02 4.066662494e-01 -4.244012145e-02 5.933337506e-01 4.244012145e-02
3.513333333e+08 5.939782237e-01 4.497986116e-02 4.060217763e-01 -4.497986116e-02 4.060217763e-01 -4.497986116e-02 5.939782237e-01 4.497986116e-02
3.706666667e+08 5.946780620e-01 4.751174581e-02 4.053219380e-01 -4.751174581e-02 4.053219380e-01 -4.751174581e-02 5.946780620e-01 4.751174581e-02
3.900000000e+08 5.954330756e-01 5.003278367e-02 4.045669244e-01 -5.003278367e-02 4.045669244e-01 -5.003278367e-02 5.954330756e-01 5.003278367e-02
4.093333333e+08 5.962427706e-01 5.254011156e-02 4.037572294e-01 -5.254011156e-02 4.037572294e-01 -5.254011156e-02 5.962427706e-01 5.254011156e-02
4.286666667e+08 5.971063879e-01 5.503102084e-02 4.028936121e-01 -5.503102084e-02 4.028936121e-01 -5.503102084e-02 5.971063879e-01 5.503102084e-02
4.480000000e+08 5.980229425e-01 5.750297547e-02 4.019770575e-01 -5.750297547e-02 4.019770575e-01 -5.750297547e-02 5.980229425e-01 5.750297547e-02
4.673333333e+08 5.989912593e-01 5.995362331e-02 4.010087407e-01 -5.995362331e-02 4.010087407e-01 -5.995362331e-02 5.989912593e-01 5.995362331e-02
4.866666667e+08 6.000100081e-01 6.238080193e-02 3.999899919e-01 -6.238080193e-02 3.999899919e-01 -6.238080193e-02 6.000100081e-01 6.238080193e-02
5.060000000e+08 6.010777341e-01 6.478253985e-02 3.989222659e-01 -6.478253985e-02 3.989222659e-01 -6.478253985e-02 6.010777341e-01 6.478253985e-02
5.253333333e+08 6.021928861e-01 6.715705428e-02 3.978071139e-01 -6.715705428e-02 3.978071139e-01 -6.715705428e-02 6.021928861e-01 6.715705428e-02
5.446666667e+08 6.033538416e-01 6.950274623e-02 3.966461584e-01 -6.950274623e-02 3.966461584e-01 -6.950274623e-02 6.033538416e-01 6.950274623e-02
5.640000000e+08 6.045589286e-01 7.181819356e-02 3.954410714e-01 -7.181819356e-02 3.954410714e-01 -7.181819356e-02 6.045589286e-01 7.181819356e-02
5.833333333e+08 6.058064443e-01 7.410214264e-02 3.941935557e-01 -7.410214264e-02 3.941935557e-01 -7.410214264e-02 6.058064443e-01 7.410214264e-02
6.026666667e+08 6.070946719e-01 7.635349913e-02 3.929053281e-01 -7.635349913e-02 3.929053281e-01 -7.635349913e-02 6.070946719e-01 7.635349913e-02
6.220000000e+08 6.084218941e-01 7.857131815e-02 3.915781059e-01 -7.857131815e-02 3.915781059e-01 -7.857131815e-02 6.084218941e-01 7.857131815e-02
6.413333333e+08 6.097864050e-01 8.075479422e-02 3.902135950e-01 -8.075479422e-02 3.902135950e-01 -8.075479422e-02 6.097864050e-01 8.075479422e-02
6.606666667e+08 6.111865204e-01 8.290325114e-02 3.888134796e-01 -8.290325114e-02 3.888134796e-01 -8.290325114e-02 6.111865204e-01 8.290325114e-02
6.800000000e+08 6.126205850e-01 8.501613207e-02 3.873794150e-01 -8.501613207e-02 3.873794150e-01 -8.501613207e-02 6.126205850e-01 8.501613207e-02
6.993333333e+08 6.140869798e-01 8.709298975e-02 3.859130202e-01 -8.709298975e-02 3.859130202e-01 -8.709298975e-02 6.140869798e-01 8.709298975e-02
7.186666667e+08 6.155841274e-01 8.913347721e-02 3.844158726e-01 -8.913347721e-02 3.844158726e-01 -8.913347721e-02 6.155841274e-01 8.913347721e-02
7.380000000e+08 6.171104956e-01 9.113733876e-02 3.828895044e-01 -9.113733876e-02 3.828895044e-01 -9.113733876e-02 6.171104956e-01 9.113733876e-02
7.573333333e+08 6.186646013e-01 9.310440149e-02 3.813353987e-01 -9.310440149e-02 3.813353987e-01 -9.310440149e-02 6.186646013e-01 9.310440149e-02
7.766666667e+08 6.202450127e-01 9.503456721e-02 3.797549873e-01 -9.503456721e-02 3.797549873e-01 -9.503456721e-02 6.202450127e-01 9.503456721e-02
7.960000000e+08 6.218503509e-01 9.692780487e-02 3.781496491e-01 -9.692780487e-02 3.781496491e-01 -9.692780487e-02 6.218503509e-01 9.692780487e-02
8.153333333e+08 6.234792906e-01 9.878414342e-02 3.765207094e-01 -9.878414342e-02 3.765207094e-01 -9.878414342e-02 6.234792906e-01 9.878414342e-02
8.346666667e+08 6.251305616e-01 1.006036652e-01 3.748694384e-01 -1.006036652e-01 3.748694384e-01 -1.006036652e-01 6.251305616e-01 1.006036652e-01
8.540000000e+08 6.268029476e-01 1.023864996e-01 3.731970524e-01 -1.023864996e-01 3.731970524e-01 -1.023864996e-01 6.268029476e-01 1.023864996e-01
8.733333333e+08 6.284952871e-01 1.041328176e-01 3.715047129e-01 -1.041328176e-01 3.715047129e-01 -1.041328176e-01 6.284952871e-01 1.041328176e-01
8.926666667e+08 6.302064719e-01 1.058428258e-01 3.697935281e-01 -1.058428258e-01 3.697935281e-01 -1.058428258e-01 6.302064719e-01 1.058428258e-01
9.120000000e+08 6.319354465e-01 1.075167623e-01 3.680645535e-01 -1.075167623e-01 3.680645535e-01 -1.075167623e-01 6.319354465e-01 1.075167623e-01
9.313333333e+08 6.336812071e-01 1.091548912e-01 3.663187929e-01 -1.091548912e-01 3.663187929e-01 -1.091548912e-01 6.336812071e-01 1.091548912e-01
9.506666667e+08 6.354427999e-01 1.107574991e-01 3.645572001e-01 -1.107574991e-01 3.645572001e-01 -1.107574991e-01 6.354427999e-01 1.107574991e-01
9.700000000e+08 6.372193201e-01 1.123248908e-01 3.627806799e-01 -1.123248908e-01 3.627806799e-01 -1.123248908e-01 6.372193201e-01 1.123248908e-01
9.893333333e+08 6.390099099e-01 1.138573859e-01 3.609900901e-01 -1.138573859e-01 3.609900901e-01 -1.138573859e-01 6.390099099e-01 1.138573859e-01
1.008666667e+09 6.408137569e-01 1.153553153e-01 3.591862431e-01 -1.153553153e-01 3.591862431e-01 -1.153553153e-01 6.408137569e-01 1.153553153e-01
1.028000000e+09 6.426300923e-01 1.168190184e-01 3.573699077e-01 -1.168190184e-01 3.573699077e-01 -1.168190184e-01 6.426300923e-01 1.168190184e-01
1.047333333e+09 6.444581893e-01 1.182488404e-01 3.555418107e-01 -1.182488404e-01 3.555418107e-01 -1.182488404e-01 6.444581893e-01 1.182488404e-01
1.066666667e+09 6.462973608e-01 1.196451297e-01 3.537026392e-01 -1.196451297e-01 3.537026392e-01 -1.196451297e-01 6.462973608e-01 1.196451297e-01
1.086000000e+09 6.481469576e-01 1.210082356e-01 3.518530424e-01 -1.210082356e-01 3.518530424e-01 -1.210082356e-01 6.481469576e-01 1.210082356e-01
1.105333333e+09 6.500063667e-01 1.223385064e-01 3.499936333e-01 -1.223385064e-01 3.499936333e-01 -1.223385064e-01 6.500063667e-01 1.223385064e-01
1.124666667e+09 6.518750091e-01 1.236362876e-01 3.481249909e-01 -1.236362876e-01 3.481249909e-01 -1.236362876e-01 6.518750091e-01 1.236362876e-01
1.144000000e+09 6.537523378e-01 1.249019202e-01 3.462476622e-01 -1.249019202e-01 3.462476622e-01 -1.249019202e-01 6.537523378e-01 1.249019202e-01
1.163333333e+09 6.556378361e-01 1.261357392e-01 3.443621639e-01 -1.261357392e-01 3.443621639e-01 -1.261357392e-01 6.556378361e-01 1.261357392e-01
1.182666667e+09 6.575310156e-01 1.273380724e-01 3.424689844e-01 -1.273380724e-01 3.424689844e-01 -1.273380724e-01 6.575310156e-01 1.273380724e-01
1.202000000e+09 6.594314142e-01 1.285092393e-01 3.405685858e-01 -1.285092393e-01 3.405685858e-01 -1.285092393e-01 6.594314142e-01 1.285092393e-01
1.221333333e+09 6.613385943e-01 1.296495500e-01 3.386614057e-01 -1.296495500e-01 3.386614057e-01 -1.296495500e-01 6.613385943e-01 1.296495500e-01
1.240666667e+09 6.632521409e-01 1.307593047e-01 3.367478591e-01 -1.307593047e-01 3.367478591e-01 -1.307593047e-01 6.632521409e-01 1.307593047e-01
1.260000000e+09 6.651716600e-01 1.318387926e-01 3.348283400e-01 -1.318387926e-01 3.348283400e-01 -1.318387926e-01 6.651716600e-01 1.318387926e-01
1.279333333e+09 6.670967766e-01 1.328882913e-01 3.329032234e-01 -1.328882913e-01 3.329032234e-01 -1.328882913e-01 6.670967766e-01 1.328882913e-01
1.298666667e+09 6.690271330e-01 1.339080669e-01 3.309728670e-01 -1.339080669e-01 3.309728670e-01 -1.339080669e-01 6.690271330e-01 1.339080669e-01
1.318000000e+09 6.709623873e-01 1.348983730e-01 3.290376127e-01 -1.348983730e-01 3.290376127e-01 -1.348983730e-01 6.709623873e-01 1.348983730e-01
1.337333333e+09 6.729022116e-01 1.358594508e-01 3.270977884e-01 -1.358594508e-01 3.270977884e-01 -1.358594508e-01 6.729022116e-01 1.358594508e-01
1.356666667e+09 6.748462906e-01 1.367915287e-01 3.251537094e-01 -1.367915287e-01 3.251537094e-01 -1.367915287e-01 6.748462906e-01 1.367915287e-01
1.376000000e+09 6.767943196e-01 1.376948226e-01 3.232056804e-01 -1.376948226e-01 3.232056804e-01 -1.376948226e-01 6.767943196e-01 1.376948226e-01
1.395333333e+09 6.787460037e-01 1.385695354e-01 3.212539963e-01 -1.385695354e-01 3.212539963e-01 -1.385695354e-01 6.787460037e-01 1.385695354e-01
1.414666667e+09 6.807010556e-01 1.394158576e-01 3.192989444e-01 -1.394158576e-01 3.192989444e-01 -1.394158576e-01 6.807010556e-01 1.394158576e-01
1.434000000e+09 6.826591947e-01 1.402339668e-01 3.173408053e-01 -1.402339668e-01 3.173408053e-01 -1.402339668e-01 6.826591947e-01 1.402339668e-01
1.453333333e+09 6.846201456e-01 1.410240288e-01 3.153798544e-01 -1.410240288e-01 3.153798544e-01 -1.410240288e-01 6.846201456e-01 1.410240288e-01
1.472666667e+09 6.865836367e-01 1.417861972e-01 3.134163633e-01 -1.417861972e-01 3.134163633e-01 -1.417861972e-01 6.865836367e-01 1.417861972e-01
1.492000000e+09 6.885493989e-01 1.425206138e-01 3.114506011e-01 -1.425206138e-01 3.114506011e-01 -1.425206138e-01 6.885493989e-01 1.425206138e-01
1.511333333e+09 6.905171648e-01 1.432274093e-01 3.094828352e-01 -1.432274093e-01 3.094828352e-01 -1.432274093e-01 6.905171648e-01 1.432274093e-01
1.530666667e+09 6.924866667e-01 1.439067039e-01 3.075133333e-01 -1.439067039e-01 3.075133333e-01 -1.439067039e-01 6.924866667e-01 1.439067039e-01
1.550000000e+09 6.944576364e-01 1.445586072e-01 3.055423636e-01 -1.445586072e-01 3.055423636e-01 -1.445586072e-01 6.944576364e-01 1.445586072e-01
1.569333333e+09 6.964298033e-01 1.451832194e-01 3.035701967e-01 -1.451832194e-01 3.035701967e-01 -1.451832194e-01 6.964298033e-01 1.451832194e-01
1.588666667e+09 6.984028939e-01 1.457806315e-01 3.015971061e-01 -1.457806315e-01 3.015971061e-01 -1.457806315e-01 6.984028939e-01 1.457806315e-01
1.608000000e+09 7.003766305e-01 1.463509263e-01 2.996233695e-01 -1.463509263e-01 2.996233695e-01 -1.463509263e-01 7.003766305e-01 1.463509263e-01
1.627333333e+09 7.023507306e-01 1.468941789e-01 2.976492694e-01 -1.468941789e-01 2.976492694e-01 -1.468941789e-01 7.023507306e-01 1.468941789e-01
1.646666667e+09 7.043249054e-01 1.474104576e-01 2.956750946e-01 -1.474104576e-01 2.956750946e-01 -1.474104576e-01 7.043249054e-01 1.474104576e-01
1.666000000e+09 7.062988596e-01 1.478998248e-01 2.937011404e-01 -1.478998248e-01 2.937011404e-01 -1.478998248e-01 7.062988596e-01 1.478998248e-01
1.685333333e+09 7.082722901e-01 1.483623376e-01 2.917277099e-01 -1.483623376e-01 2.917277099e-01 -1.483623376e-01 7.082722901e-01 1.483623376e-01
1.704666667e+09 7.102448856e-01 1.487980488e-01 2.897551144e-01 -1.487980488e-01 2.897551144e-01 -1.487980488e-01 7.102448856e-01 1.487980488e-01
1.724000000e+09 7.122163254e-01 1.492070083e-01 2.877836746e-01 -1.492070083e-01 2.877836746e-01 -1.492070083e-01 7.122163254e-01 1.492070083e-01
1.743333333e+09 7.141862793e-01 1.495892632e-01 2.858137207e-01 -1.495892632e-01 2.858137207e-01 -1.495892632e-01 7.141862793e-01 1.495892632e-01
1.762666667e+09 7.161544068e-01 1.499448598e-01 2.838455932e-01 -1.499448598e-01 2.838455932e-01 -1.499448598e-01 7.161544068e-01 1.499448598e-01
1.782000000e+09 7.181203562e-01 1.502738442e-01 2.818796438e-01 -1.502738442e-01 2.818796438e-01 -1.502738442e-01 7.181203562e-01 1.502738442e-01
1.801333333e+09 7.200837645e-01 1.505762634e-01 2.799162355e-01 -1.505762634e-01 2.799162355e-01 -1.505762634e-01 7.200837645e-01 1.505762634e-01
1.820666667e+09 7.220442571e-01 1.508521666e-01 2.779557429e-01 -1.508521666e-01 2.779557429e-01 -1.508521666e-01 7.220442571e-01 1.508521666e-01
1.840000000e+09 7.240014468e-01 1.511016066e-01 2.759985532e-01 -1.511016066e-01 2.759985532e-01 -1.511016066e-01 7.240014468e-01 1.511016066e-01
1.859333333e+09 7.259549340e-01 1.513246407e-01 2.740450660e-01 -1.513246407e-01 2.740450660e-01 -1.513246407e-01 7.259549340e-01 1.513246407e-01
1.878666667e+09 7.279043064e-01 1.515213323e-01 2.720956936e-01 -1.515213323e-01 2.720956936e-01 -1.515213323e-01 7.279043064e-01 1.515213323e-01
1.898000000e+09 7.298491388e-01 1.516917522e-01 2.701508612e-01 -1.516917522e-01 2.701508612e-01 -1.516917522e-01 7.298491388e-01 1.516917522e-01
1.917333333e+09 7.317889929e-01 1.518359800e-01 2.682110071e-01 -1.518359800e-01 2.682110071e-01 -1.518359800e-01 7.317889929e-01 1.518359800e-01
1.936666667e+09 7.337234173e-01 1.519541055e-01 2.662765827e-01 -1.519541055e-01 2.662765827e-01 -1.519541055e-01 7.337234173e-01 1.519541055e-01
1.956000000e+09 7.356519479e-01 1.520462301e-01 2.643480521e-01 -1.520462301e-01 2.643480521e-01 -1.520462301e-01 7.356519479e-01 1.520462301e-01
1.975333333e+09 7.375741076e-01 1.521124685e-01 2.624258924e-01 -1.521124685e-01 2.624258924e-01 -1.521124685e-01 7.375741076e-01 1.521124685e-01
1.994666667e+09 7.394894071e-01 1.521529503e-01 2.605105929e-01 -1.521529503e-01 2.605105929e-01 -1.521529503e-01 7.394894071e-01 1.521529503e-01
2.014000000e+09 7.413973448e-01 1.521678214e-01 2.586026552e-01 -1.521678214e-01 2.586026552e-01 -1.521678214e-01 7.413973448e-01 1.521678214e-01
2.033333333e+09 7.432974077e-01 1.521572457e-01 2.567025923e-01 -1.521572457e-01 2.567025923e-01 -1.521572457e-01 7.432974077e-01 1.521572457e-01
2.052666667e+09 7.451890718e-01 1.521214067e-01 2.548109282e-01 -1.521214067e-01 2.548109282e-01 -1.521214067e-01 7.451890718e-01 1.521214067e-01
2.072000000e+09 7.470718030e-01 1.520605094e-01 2.529281970e-01 -1.520605094e-01 2.529281970e-01 -1.520605094e-01 7.470718030e-01 1.520605094e-01
2.091333333e+09 7.489450578e-01 1.519747818e-01 2.510549422e-01 -1.519747818e-01 2.510549422e-01 -1.519747818e-01 7.489450578e-01 1.519747818e-01
2.110666667e+09 7.508082845e-01 1.518644767e-01 2.491917155e-01 -1.518644767e-01 2.491917155e-01 -1.518644767e-01 7.508082845e-01 1.518644767e-01
2.130000000e+09 7.526609246e-01 1.517298732e-01 2.473390754e-01 -1.517298732e-01 2.473390754e-01 -1.517298732e-01 7.526609246e-01 1.517298732e-01
2.149333333e+09 7.545024136e-01 1.515712787e-01 2.454975864e-01 -1.515712787e-01 2.454975864e-01 -1.515712787e-01 7.545024136e-01 1.515712787e-01
2.168666667e+09 7.563321832e-01 1.513890307e-01 2.436678168e-01 -1.513890307e-01 2.436678168e-01 -1.513890307e-01 7.563321832e-01 1.513890307e-01
2.188000000e+09 7.581496626e-01 1.511834980e-01 2.418503374e-01 -1.511834980e-01 2.418503374e-01 -1.511834980e-01 7.581496626e-01 1.511834980e-01
2.207333333e+09 7.599542803e-01 1.509550829e-01 2.400457197e-01 -1.509550829e-01 2.400457197e-01 -1.509550829e-01 7.599542803e-01 1.509550829e-01
2.226666667e+09 7.617454670e-01 1.507042224e-01 2.382545330e-01 -1.507042224e-01 2.382545330e-01 -1.507042224e-01 7.617454670e-01 1.507042224e-01
2.246000000e+09 7.635226570e-01 1.504313900e-01 2.364773430e-01 -1.504313900e-01 2.364773430e-01 -1.504313900e-01 7.635226570e-01 1.504313900e-01
2.265333333e+09 7.652852915e-01 1.501370972e-01 2.347147085e-01 -1.501370972e-01 2.347147085e-01 -1.501370972e-01 7.652852915e-01 1.501370972e-01
2.284666667e+09 7.670328208e-01 1.498218945e-01 2.329671792e-01 -1.498218945e-01 2.329671792e-01 -1.498218945e-01 7.670328208e-01 1.498218945e-01
2.304000000e+09 7.687647079e-01 1.494863733e-01 2.312352921e-01 -1.494863733e-01 2.312352921e-01 -1.494863733e-01 7.687647079e-01 1.494863733e-01
2.323333333e+09 7.704804317e-01 1.491311665e-01 2.295195683e-01 -1.491311665e-01 2.295195683e-01 -1.491311665e-01 7.704804317e-01 1.491311665e-01
2.342666667e+09 7.721794903e-01 1.487569498e-01 2.278205097e-01 -1.487569498e-01 2.278205097e-01 -1.487569498e-01 7.721794903e-01 1.487569498e-01
2.362000000e+09 7.738614051e-01 1.483644423e-01 2.261385949e-01 -1.483644423e-01 2.261385949e-01 -1.483644423e-01 7.738614051e-01 1.483644423e-01
2.381333333e+09 7.755257248e-01 1.479544073e-01 2.244742752e-01 -1.479544073e-01 2.244742752e-01 -1.479544073e-01 7.755257248e-01 1.479544073e-01
2.400666667e+09 7.771720298e-01 1.475276524e-01 2.228279702e-01 -1.475276524e-01 2.228279702e-01 -1.475276524e-01 7.771720298e-01 1.475276524e-01
2.420000000e+09 7.787999371e-01 1.470850295e-01 2.212000629e-01 -1.470850295e-01 2.212000629e-01 -1.470850295e-01 7.787999371e-01 1.470850295e-01
2.439333333e+09 7.804091051e-01 1.466274350e-01 2.195908949e-01 -1.466274350e-01 2.195908949e-01 -1.466274350e-01 7.804091051e-01 1.466274350e-01
2.458666667e+09 7.819992386e-01 1.461558085e-01 2.180007614e-01 -1.461558085e-01 2.180007614e-01 -1.461558085e-01 7.819992386e-01 1.461558085e-01
2.478000000e+09 7.835700950e-01 1.456711323e-01 2.164299050e-01 -1.456711323e-01 2.164299050e-01 -1.456711323e-01 7.835700950e-01 1.456711323e-01
2.497333333e+09 7.851214892e-01 1.451744297e-01 2.148785108e-01 -1.451744297e-01 2.148785108e-01 -1.451744297e-01 7.851214892e-01 1.451744297e-01
2.516666667e+09 7.866533005e-01 1.446667631e-01 2.133466995e-01 -1.446667631e-01 2.133466995e-01 -1.446667631e-01 7.866533005e-01 1.446667631e-01
2.536000000e+09 7.881654783e-01 1.441492312e-01 2.118345217e-01 -1.441492312e-01 2.118345217e-01 -1.441492312e-01 7.881654783e-01 1.441492312e-01
2.555333333e+09 7.896580487e-01 1.436229664e-01 2.103419513e-01 -1.436229664e-01 2.103419513e-01 -1.436229664e-01 7.896580487e-01 1.436229664e-01
2.574666667e+09 7.911311212e-01 1.430891303e-01 2.088688788e-01 -1.430891303e-01 2.088688788e-01 -1.430891303e-01 7.911311212e-01 1.430891303e-01
2.594000000e+09 7.925848957e-01 1.425489100e-01 2.074151043e-01 -1.425489100e-01 2.074151043e-01 -1.425489100e-01 7.925848957e-01 1.425489100e-01
2.613333333e+09 7.940196690e-01 1.420035120e-01 2.059803310e-01 -1.420035120e-01 2.059803310e-01 -1.420035120e-01 7.940196690e-01 1.420035120e-01
2.632666667e+09 7.954358421e-01 1.414541565e-01 2.045641579e-01 -1.414541565e-01 2.045641579e-01 -1.414541565e-01 7.954358421e-01 1.414541565e-01
2.652000000e+09 7.968339270e-01 1.409020704e-01 2.031660730e-01 -1.409020704e-01 2.031660730e-01 -1.409020704e-01 7.968339270e-01 1.409020704e-01
2.671333333e+09 7.982145535e-01 1.403484790e-01 2.017854465e-01 -1.403484790e-01 2.017854465e-01 -1.403484790e-01 7.982145535e-01 1.403484790e-01
2.690666667e+09 7.995784760e-01 1.397945970e-01 2.004215240e-01 -1.397945970e-01 2.004215240e-01 -1.397945970e-01 7.995784760e-01 1.397945970e-01
2.710000000e+09 8.009265799e-01 1.392416183e-01 1.990734201e-01 -1.392416183e-01 1.990734201e-01 -1.392416183e-01 8.009265799e-01 1.392416183e-01
2.729333333e+09 8.022598876e-01 1.386907049e-01 1.977401124e-01 -1.386907049e-01 1.977401124e-01 -1.386907049e-01 8.022598876e-01 1.386907049e-01
2.748666667e+09 8.035795645e-01 1.381429739e-01 1.964204355e-01 -1.381429739e-01 1.964204355e-01 -1.381429739e-01 8.035795645e-01 1.381429739e-01
2.768000000e+09 8.048869233e-01 1.375994838e-01 1.951130767e-01 -1.375994838e-01 1.951130767e-01 -1.375994838e-01 8.048869233e-01 1.375994838e-01
2.787333333e+09 8.061834287e-01 1.370612195e-01 1.938165713e-01 -1.370612195e-01 1.938165713e-01 -1.370612195e-01 8.061834287e-01 1.370612195e-01
2.806666667e+09 8.074707007e-01 1.365290754e-01 1.925292993e-01 -1.365290754e-01 1.925292993e-01 -1.365290754e-01 8.074707007e-01 1.365290754e-01
2.826000000e+09 8.087505167e-01 1.360038373e-01 1.912494833e-01 -1.360038373e-01 1.912494833e-01 -1.360038373e-01 8.087505167e-01 1.360038373e-01
2.845333333e+09 8.100248121e-01 1.354861635e-01 1.899751879e-01 -1.354861635e-01 1.899751879e-01 -1.354861635e-01 8.100248121e-01 1.354861635e-01
2.864666667e+09 8.112956804e-01 1.349765631e-01 1.887043196e-01 -1.349765631e-01 1.887043196e-01 -1.349765631e-01 8.112956804e-01 1.349765631e-01
2.884000000e+09 8.125653700e-01 1.344753743e-01 1.874346300e-01 -1.344753743e-01 1.874346300e-01 -1.344753743e-01 8.125653700e-01 1.344753743e-01
2.903333333e+09 8.138362803e-01 1.339827401e-01 1.861637197e-01 -1.339827401e-01 1.861637197e-01 -1.339827401e-01 8.138362803e-01 1.339827401e-01
2.922666667e+09 8.151109549e-01 1.334985835e-01 1.848890451e-01 -1.334985835e-01 1.848890451e-01 -1.334985835e-01 8.151109549e-01 1.334985835e-01
2.942000000e+09 8.163920720e-01 1.330225806e-01 1.836079280e-01 -1.330225806e-01 1.836079280e-01 -1.330225806e-01 8.163920720e-01 1.330225806e-01
2.961333333e+09 8.176824328e-01 1.325541329e-01 1.823175672e-01 -1.325541329e-01 1.823175672e-01 -1.325541329e-01 8.176824328e-01 1.325541329e-01
2.980666667e+09 8.189849454e-01 1.320923385e-01 1.810150546e-01 -1.320923385e-01 1.810150546e-01 -1.320923385e-01 8.189849454e-01 1.320923385e-01
3.000000000e+09 8.203026063e-01 1.316359618e-01 1.796973937e-01 -1.316359618e-01 1.796973937e-01 -1.316359618e-01 8.203026063e-01 1.316359618e-01
